language Essence 1.3

letting codeWordLength be 41
letting dist be
        function((1, 1) --> 0, (1, 2) --> 1, (1, 3) --> 13, (1, 4) --> 6, (1, 5) --> 15, (1, 6) --> 11, (1, 7) --> 17,
                 (1, 8) --> 1, (1, 9) --> 16, (1, 10) --> 2, (1, 11) --> 16, (1, 12) --> 6, (2, 1) --> 1, (2, 2) --> 0,
                 (2, 3) --> 14, (2, 4) --> 12, (2, 5) --> 16, (2, 6) --> 6, (2, 7) --> 4, (2, 8) --> 21, (2, 9) --> 11,
                 (2, 10) --> 1, (2, 11) --> 17, (2, 12) --> 6, (3, 1) --> 13, (3, 2) --> 14, (3, 3) --> 0,
                 (3, 4) --> 21, (3, 5) --> 19, (3, 6) --> 5, (3, 7) --> 19, (3, 8) --> 6, (3, 9) --> 8, (3, 10) --> 2,
                 (3, 11) --> 5, (3, 12) --> 3, (4, 1) --> 6, (4, 2) --> 12, (4, 3) --> 21, (4, 4) --> 0, (4, 5) --> 18,
                 (4, 6) --> 5, (4, 7) --> 2, (4, 8) --> 7, (4, 9) --> 20, (4, 10) --> 2, (4, 11) --> 2, (4, 12) --> 17,
                 (5, 1) --> 15, (5, 2) --> 16, (5, 3) --> 19, (5, 4) --> 18, (5, 5) --> 0, (5, 6) --> 10, (5, 7) --> 18,
                 (5, 8) --> 10, (5, 9) --> 16, (5, 10) --> 0, (5, 11) --> 4, (5, 12) --> 21, (6, 1) --> 11,
                 (6, 2) --> 6, (6, 3) --> 5, (6, 4) --> 5, (6, 5) --> 10, (6, 6) --> 0, (6, 7) --> 16, (6, 8) --> 9,
                 (6, 9) --> 19, (6, 10) --> 4, (6, 11) --> 5, (6, 12) --> 0, (7, 1) --> 17, (7, 2) --> 4, (7, 3) --> 19,
                 (7, 4) --> 2, (7, 5) --> 18, (7, 6) --> 16, (7, 7) --> 0, (7, 8) --> 16, (7, 9) --> 6, (7, 10) --> 10,
                 (7, 11) --> 15, (7, 12) --> 16, (8, 1) --> 1, (8, 2) --> 21, (8, 3) --> 6, (8, 4) --> 7, (8, 5) --> 10,
                 (8, 6) --> 9, (8, 7) --> 16, (8, 8) --> 0, (8, 9) --> 5, (8, 10) --> 6, (8, 11) --> 4, (8, 12) --> 10,
                 (9, 1) --> 16, (9, 2) --> 11, (9, 3) --> 8, (9, 4) --> 20, (9, 5) --> 16, (9, 6) --> 19, (9, 7) --> 6,
                 (9, 8) --> 5, (9, 9) --> 0, (9, 10) --> 16, (9, 11) --> 17, (9, 12) --> 14, (10, 1) --> 2,
                 (10, 2) --> 1, (10, 3) --> 2, (10, 4) --> 2, (10, 5) --> 0, (10, 6) --> 4, (10, 7) --> 10,
                 (10, 8) --> 6, (10, 9) --> 16, (10, 10) --> 0, (10, 11) --> 19, (10, 12) --> 10, (11, 1) --> 16,
                 (11, 2) --> 17, (11, 3) --> 5, (11, 4) --> 2, (11, 5) --> 4, (11, 6) --> 5, (11, 7) --> 15,
                 (11, 8) --> 4, (11, 9) --> 17, (11, 10) --> 19, (11, 11) --> 0, (11, 12) --> 6, (12, 1) --> 6,
                 (12, 2) --> 6, (12, 3) --> 3, (12, 4) --> 17, (12, 5) --> 21, (12, 6) --> 0, (12, 7) --> 16,
                 (12, 8) --> 10, (12, 9) --> 14, (12, 10) --> 10, (12, 11) --> 6, (12, 12) --> 0)
letting maxDist be 41
letting minDist be 110
letting nbCharacter be 12
letting numOfCodeWords be 9
